c FILE /home/rafael/Documents/HappySet/MIHS/inputs/happygen/output/graph_d_regular_k3_p0.4_v100_20241127_084016.txt
c SOURCE This is a d-regular graph formed for the happy graph colouring problem.
c DESCRIPTION It was generated using the problem generator of Rhyd Lewis
c
c GRAPH STATS
c Seed                             = -1599673597
c Number of Nodes                  = 100
c Number of colours k              = 3
c Number of pre-assignments        = 40
c Degree of all vertices           = 6
c Density                          = 0.0606061
c 
c The degrees of nodes 1 to 100, respectively, are as follows 
c [6, 6, 6, 6, 6, 6, 6, 6, 6, 6, 6, 6, 6, 6, 6, 6, 6, 6, 6, 6, 6, 6, 6, 6, 6, 6, 
c  6, 6, 6, 6, 6, 6, 6, 6, 6, 6, 6, 6, 6, 6, 6, 6, 6, 6, 6, 6, 6, 6, 6, 6, 6, 
c  6, 6, 6, 6, 6, 6, 6, 6, 6, 6, 6, 6, 6, 6, 6, 6, 6, 6, 6, 6, 6, 6, 6, 6, 6, 
c  6, 6, 6, 6, 6, 6, 6, 6, 6, 6, 6, 6, 6, 6, 6, 6, 6, 6, 6, 6, 6, 6, 6, 6] 
c  
p edge 100 300 3
e 1 29
e 1 51
e 1 55
e 1 87
e 1 89
e 1 99
e 2 10
e 2 12
e 2 26
e 2 31
e 2 36
e 2 52
e 3 9
e 3 13
e 3 26
e 3 30
e 3 43
e 3 49
e 4 18
e 4 46
e 4 59
e 4 66
e 4 89
e 4 100
e 5 36
e 5 58
e 5 72
e 5 74
e 5 76
e 5 91
e 6 18
e 6 31
e 6 50
e 6 68
e 6 80
e 6 83
e 7 22
e 7 27
e 7 47
e 7 65
e 7 92
e 7 93
e 8 37
e 8 41
e 8 45
e 8 50
e 8 52
e 8 74
e 9 32
e 9 40
e 9 64
e 9 77
e 9 97
e 10 14
e 10 21
e 10 46
e 10 95
e 10 97
e 11 32
e 11 48
e 11 60
e 11 75
e 11 84
e 11 100
e 12 22
e 12 38
e 12 53
e 12 90
e 12 100
e 13 42
e 13 59
e 13 68
e 13 90
e 13 99
e 14 42
e 14 43
e 14 69
e 14 76
e 14 97
e 15 19
e 15 34
e 15 57
e 15 58
e 15 69
e 15 89
e 16 36
e 16 42
e 16 77
e 16 78
e 16 83
e 16 88
e 17 23
e 17 25
e 17 34
e 17 41
e 17 55
e 17 72
e 18 48
e 18 56
e 18 78
e 18 94
e 19 39
e 19 43
e 19 46
e 19 83
e 19 95
e 20 29
e 20 54
e 20 55
e 20 66
e 20 70
e 20 75
e 21 55
e 21 57
e 21 64
e 21 73
e 21 77
e 22 42
e 22 52
e 22 76
e 22 92
e 23 24
e 23 40
e 23 56
e 23 62
e 23 90
e 24 28
e 24 39
e 24 50
e 24 57
e 24 72
e 25 31
e 25 38
e 25 51
e 25 69
e 25 78
e 26 36
e 26 38
e 26 63
e 26 67
e 27 48
e 27 57
e 27 69
e 27 79
e 27 96
e 28 33
e 28 49
e 28 54
e 28 70
e 28 75
e 29 58
e 29 60
e 29 81
e 29 83
e 30 33
e 30 66
e 30 81
e 30 82
e 30 84
e 31 57
e 31 63
e 31 79
e 32 36
e 32 44
e 32 49
e 32 88
e 33 44
e 33 72
e 33 94
e 33 98
e 34 49
e 34 67
e 34 70
e 34 94
e 35 48
e 35 70
e 35 76
e 35 77
e 35 91
e 35 99
e 36 67
e 37 44
e 37 60
e 37 82
e 37 88
e 37 92
e 38 62
e 38 71
e 38 75
e 39 50
e 39 60
e 39 61
e 39 64
e 40 48
e 40 59
e 40 63
e 40 87
e 41 43
e 41 85
e 41 96
e 41 100
e 42 44
e 42 91
e 43 54
e 43 81
e 44 65
e 44 98
e 45 50
e 45 52
e 45 67
e 45 93
e 45 99
e 46 53
e 46 56
e 46 89
e 47 62
e 47 68
e 47 86
e 47 91
e 47 96
e 48 97
e 49 79
e 49 93
e 50 86
e 51 74
e 51 75
e 51 96
e 51 98
e 52 61
e 52 73
e 53 56
e 53 65
e 53 86
e 53 93
e 54 69
e 54 88
e 54 100
e 55 66
e 55 77
e 56 68
e 56 79
e 57 91
e 58 66
e 58 78
e 58 83
e 59 64
e 59 82
e 59 84
e 60 61
e 60 73
e 61 63
e 61 81
e 61 95
e 62 66
e 62 76
e 62 87
e 63 65
e 63 84
e 64 78
e 64 80
e 65 73
e 65 77
e 67 80
e 67 82
e 68 91
e 68 97
e 69 74
e 70 86
e 70 94
e 71 74
e 71 89
e 71 94
e 71 95
e 71 96
e 72 81
e 72 90
e 73 82
e 73 85
e 74 87
e 75 95
e 76 85
e 78 84
e 79 83
e 79 98
e 80 85
e 80 86
e 80 93
e 81 92
e 82 89
e 84 95
e 85 87
e 85 92
e 86 98
e 87 90
e 88 93
e 88 97
e 90 100
e 92 99
e 94 98
e 96 99
n 3 2
n 7 3
n 8 3
n 9 2
n 10 2
n 11 3
n 19 2
n 22 3
n 24 1
n 29 1
n 30 2
n 31 2
n 36 1
n 37 3
n 38 2
n 42 3
n 48 3
n 49 2
n 51 1
n 53 2
n 54 3
n 55 1
n 56 2
n 58 1
n 59 2
n 61 2
n 62 2
n 64 2
n 67 1
n 69 3
n 70 2
n 72 1
n 79 2
n 86 2
n 87 2
n 89 3
n 92 3
n 94 2
n 95 2
n 96 1
